96
[[-1, 0, 12801, 42567, 0, 45771, 0, 0, 0, 0, 0, 5321, 0, 15269, 40061, 0, 0, 0, 0, 0, 0, 0, 0, 0, 0, 0, 0, 0, 0, 36727, 0, 0, 0, 0, 0, 0, 19998, 0, 27251, 40138, 0, 27911, 32945, 0, 36540, 0, 0, 0, 34065, 0, 0, 0, 0, 44900, 0, 0, 41103, 0, 19707, 0, 0, 0, 0, 11422, 0, 32661, 0, 34906, 0, 38471, 0, 0, 35402, 0, 0, 0, 0, 5219, 30544, 0, 31433, 0, 0, 0, 0, 0, 12885, 20328, 0, 39538, 0, 16201, 0, 0, 0, 0],[0, -1, 0, 0, 14512, 0, 26378, 0, 0, 0, 19990, 0, 0, 0, 9365, 0, 25218, 0, 0, 0, 0, 0, 2708, 0, 0, 0, 0, 0, 37054, 20619, 0, 0, 0, 0, 0, 0, 0, 0, 11313, 0, 34607, 0, 0, 0, 0, 0, 29985, 0, 0, 0, 13657, 0, 37952, 0, 0, 0, 0, 0, 0, 42562, 0, 0, 0, 0, 0, 0, 0, 0, 0, 45612, 0, 0, 0, 0, 0, 0, 0, 43237, 0, 0, 43951, 0, 32662, 45376, 0, 0, 22193, 0, 35950, 0, 0, 0, 0, 0, 0, 0],[12801, 0, -1, 0, 4574, 0, 0, 0, 17459, 0, 0, 0, 0, 31697, 9709, 33807, 0, 0, 27196, 0, 0, 27493, 40499, 0, 0, 0, 0, 0, 0, 0, 0, 0, 0, 39028, 0, 0, 9352, 0, 0, 0, 23646, 0, 34960, 0, 0, 0, 0, 0, 0, 0, 0, 37457, 29610, 0, 0, 0, 0, 0, 40728, 0, 42654, 45923, 36603, 0, 0, 43395, 0, 7518, 15608, 33852, 0, 0, 19955, 0, 0, 0, 0, 0, 34142, 45501, 0, 0, 0, 0, 0, 0, 0, 0, 46163, 0, 0, 0, 0, 22231, 0, 9681],[42567, 0, 0, -1, 0, 5573, 0, 0, 0, 44455, 0, 0, 0, 24333, 0, 0, 44513, 0, 0, 0, 15047, 0, 0, 0, 16203, 0, 0, 0, 0, 0, 0, 27143, 0, 0, 0, 0, 0, 32536, 0, 36776, 0, 42145, 0, 0, 0, 0, 0, 0, 0, 0, 0, 7730, 36110, 0, 0, 0, 0, 0, 20089, 0, 0, 0, 0, 0, 0, 0, 0, 0, 0, 44119, 30439, 15771, 0, 0, 0, 0, 11250, 0, 23587, 0, 0, 0, 0, 32538, 14145, 0, 0, 0, 0, 0, 0, 21937, 0, 29802, 0, 0],[0, 14512, 4574, 0, -1, 32808, 0, 0, 0, 0, 0, 0, 0, 0, 32446, 0, 0, 0, 0, 0, 39724, 0, 23850, 0, 0, 33763, 0, 44091, 0, 0, 35070, 0, 23108, 42172, 19886, 40082, 31897, 41111, 0, 0, 31987, 21273, 0, 0, 0, 0, 0, 0, 0, 0, 0, 0, 0, 32221, 44476, 0, 0, 0, 0, 0, 0, 0, 0, 0, 39698, 16024, 0, 0, 0, 0, 0, 0, 0, 0, 0, 0, 0, 0, 0, 32653, 0, 0, 26289, 39221, 0, 0, 0, 0, 0, 0, 43595, 0, 0, 0, 0, 0],[45771, 0, 0, 5573, 32808, -1, 32118, 0, 0, 0, 0, 0, 0, 0, 19486, 0, 0, 0, 0, 0, 0, 0, 0, 0, 0, 0, 45738, 0, 0, 41946, 32242, 43463, 30788, 0, 0, 0, 0, 0, 34765, 0, 0, 0, 0, 0, 18831, 0, 40272, 32606, 0, 0, 0, 0, 0, 28959, 0, 0, 0, 0, 0, 30513, 0, 0, 28926, 0, 17785, 45135, 0, 0, 0, 0, 0, 0, 0, 0, 0, 0, 0, 0, 0, 0, 0, 0, 0, 19072, 0, 0, 38825, 0, 30416, 0, 0, 0, 0, 0, 40148, 0],[0, 26378, 0, 0, 0, 32118, -1, 35484, 0, 0, 0, 0, 30274, 0, 7868, 0, 0, 0, 28391, 0, 0, 0, 0, 0, 0, 0, 0, 0, 0, 0, 0, 19760, 0, 0, 0, 0, 0, 0, 0, 0, 0, 0, 0, 22784, 39355, 0, 36353, 0, 32281, 0, 0, 22495, 0, 25393, 23027, 0, 42695, 0, 0, 0, 0, 38565, 0, 0, 0, 0, 0, 0, 0, 0, 0, 0, 11932, 0, 0, 34545, 0, 0, 46264, 0, 0, 0, 0, 0, 45349, 0, 0, 31138, 0, 0, 0, 0, 0, 33426, 0, 0],[0, 0, 0, 0, 0, 0, 35484, -1, 45966, 19754, 32030, 0, 11828, 0, 0, 0, 21564, 35336, 0, 0, 0, 0, 42007, 42433, 10783, 44649, 0, 0, 30119, 10292, 0, 0, 0, 31123, 0, 0, 0, 37259, 41243, 0, 0, 0, 0, 0, 26850, 35133, 45001, 34997, 0, 0, 0, 21612, 0, 0, 0, 46095, 0, 40426, 0, 17458, 0, 0, 0, 31348, 0, 0, 0, 0, 0, 0, 0, 0, 0, 0, 0, 0, 0, 18620, 40877, 0, 0, 0, 21826, 0, 23701, 0, 0, 0, 0, 0, 0, 0, 0, 0, 0, 0],[0, 0, 17459, 0, 0, 0, 0, 45966, -1, 0, 43807, 0, 0, 0, 0, 0, 20662, 0, 4853, 0, 40088, 0, 0, 21923, 0, 42319, 0, 0, 0, 0, 0, 0, 0, 0, 0, 0, 45341, 0, 0, 0, 0, 0, 0, 0, 15142, 43472, 42672, 0, 0, 0, 0, 0, 42251, 0, 12992, 46241, 0, 0, 0, 0, 29022, 0, 0, 0, 0, 27794, 0, 23007, 0, 14340, 13450, 0, 0, 0, 0, 0, 42748, 0, 13717, 43007, 0, 0, 0, 0, 38256, 0, 0, 0, 0, 0, 0, 40675, 0, 27473, 0, 0],[0, 0, 0, 44455, 0, 0, 0, 19754, 0, -1, 0, 0, 0, 0, 0, 39211, 17411, 0, 0, 0, 0, 0, 16060, 0, 1800, 0, 33078, 13075, 0, 0, 0, 33035, 0, 0, 41891, 0, 0, 0, 0, 0, 28341, 0, 33733, 0, 0, 0, 0, 0, 0, 0, 0, 33688, 0, 0, 0, 0, 0, 0, 26562, 44651, 28244, 36214, 46098, 0, 0, 0, 44198, 0, 0, 0, 33971, 7536, 29965, 36636, 36262, 31541, 18016, 21210, 0, 0, 0, 0, 0, 37761, 0, 0, 0, 44627, 0, 0, 33498, 0, 0, 0, 0, 0],[0, 19990, 0, 0, 0, 0, 0, 32030, 43807, 0, -1, 32938, 0, 38271, 0, 0, 0, 0, 0, 0, 0, 0, 0, 0, 0, 0, 41156, 36643, 0, 20417, 31870, 39763, 0, 0, 45275, 44212, 39164, 0, 0, 0, 0, 0, 0, 0, 0, 0, 0, 18421, 0, 0, 0, 0, 0, 0, 0, 0, 40016, 39784, 0, 0, 0, 0, 0, 15919, 11135, 0, 0, 0, 0, 0, 0, 0, 0, 0, 0, 0, 0, 38754, 37679, 0, 0, 43190, 0, 39084, 0, 29742, 0, 0, 0, 0, 0, 40462, 0, 0, 0, 0],[5321, 0, 0, 0, 0, 0, 0, 0, 0, 0, 32938, -1, 0, 0, 40487, 0, 41038, 0, 27098, 0, 22422, 0, 0, 0, 0, 0, 17364, 0, 0, 0, 21208, 18214, 4505, 0, 38343, 8187, 0, 37401, 0, 36886, 44164, 43771, 0, 14160, 45089, 0, 0, 0, 41930, 0, 0, 0, 0, 0, 0, 0, 37943, 0, 0, 0, 26463, 0, 0, 40321, 26340, 0, 0, 0, 0, 14334, 33685, 0, 0, 0, 0, 0, 29625, 36519, 0, 0, 0, 0, 0, 36798, 0, 0, 0, 0, 0, 0, 0, 0, 0, 32133, 30013, 0],[0, 0, 0, 0, 0, 0, 30274, 11828, 0, 0, 0, 0, -1, 0, 0, 12874, 0, 0, 43665, 0, 0, 0, 0, 41968, 0, 0, 29095, 42616, 39915, 0, 0, 9197, 43184, 0, 0, 38189, 0, 0, 0, 0, 0, 0, 0, 0, 0, 18502, 8990, 0, 0, 0, 0, 0, 0, 36804, 38143, 39344, 21429, 0, 0, 0, 0, 0, 44036, 42047, 0, 0, 0, 0, 0, 10494, 0, 15710, 0, 43103, 0, 0, 33137, 0, 34455, 35758, 0, 0, 0, 0, 0, 0, 0, 0, 0, 0, 29379, 0, 0, 0, 0, 0],[15269, 0, 31697, 24333, 0, 0, 0, 0, 0, 0, 38271, 0, 0, -1, 18773, 33369, 0, 0, 0, 34336, 45040, 0, 46021, 0, 44901, 0, 0, 38636, 20510, 40974, 0, 0, 44173, 36791, 0, 0, 0, 0, 0, 0, 0, 0, 34125, 0, 0, 0, 0, 0, 41471, 0, 0, 0, 0, 29585, 0, 0, 0, 0, 30536, 0, 24824, 0, 0, 0, 0, 0, 29080, 0, 0, 0, 43366, 31473, 38823, 0, 36802, 29608, 45284, 0, 10310, 0, 23575, 18021, 0, 0, 28136, 0, 19973, 0, 0, 0, 0, 30442, 0, 0, 0, 35489],[40061, 9365, 9709, 0, 32446, 19486, 7868, 0, 0, 0, 0, 40487, 0, 18773, -1, 0, 26790, 0, 40387, 0, 19145, 0, 0, 0, 0, 0, 0, 0, 0, 0, 21850, 0, 0, 0, 0, 5492, 0, 0, 0, 0, 0, 0, 16607, 0, 0, 0, 0, 0, 0, 0, 43501, 22614, 0, 0, 0, 0, 0, 0, 0, 0, 0, 0, 0, 0, 0, 0, 0, 0, 0, 0, 0, 0, 0, 0, 0, 0, 0, 0, 0, 0, 0, 0, 0, 29453, 27123, 35885, 0, 0, 0, 33008, 0, 0, 0, 0, 0, 0],[0, 0, 33807, 0, 0, 0, 0, 0, 0, 39211, 0, 0, 12874, 33369, 0, -1, 32277, 0, 0, 30561, 0, 39845, 0, 0, 32899, 0, 0, 0, 0, 18710, 43318, 0, 0, 0, 24256, 0, 0, 44613, 0, 0, 0, 0, 0, 0, 0, 0, 0, 0, 0, 0, 0, 0, 0, 0, 0, 0, 0, 0, 0, 0, 0, 36632, 0, 0, 0, 0, 40809, 0, 0, 29461, 0, 0, 0, 0, 0, 0, 0, 0, 0, 0, 29703, 41506, 0, 0, 0, 0, 0, 0, 31849, 13744, 0, 0, 14384, 27818, 37077, 0],[0, 25218, 0, 44513, 0, 0, 0, 21564, 20662, 17411, 0, 41038, 0, 0, 26790, 32277, -1, 0, 0, 0, 0, 40083, 0, 0, 0, 22898, 0, 39213, 0, 0, 0, 0, 0, 44805, 0, 0, 0, 0, 0, 8780, 0, 0, 0, 0, 0, 0, 16966, 0, 0, 0, 0, 0, 25976, 0, 0, 0, 0, 0, 43449, 0, 0, 0, 36008, 0, 0, 0, 37088, 29888, 0, 0, 0, 0, 40077, 0, 41597, 0, 0, 0, 0, 0, 0, 0, 0, 0, 31889, 39483, 28878, 0, 0, 0, 37430, 0, 0, 0, 0, 42794],[0, 0, 0, 0, 0, 0, 0, 35336, 0, 0, 0, 0, 0, 0, 0, 0, 0, -1, 38272, 26458, 0, 37906, 0, 0, 21968, 0, 0, 0, 0, 0, 10601, 41074, 0, 29529, 0, 0, 0, 0, 13861, 0, 0, 0, 0, 0, 0, 33008, 0, 0, 0, 36731, 33292, 0, 0, 0, 0, 34880, 0, 23483, 36318, 17273, 0, 0, 0, 0, 0, 43269, 0, 0, 0, 0, 0, 37785, 27789, 0, 12397, 0, 0, 0, 28696, 0, 0, 0, 45197, 39266, 0, 0, 0, 24900, 0, 0, 43503, 31993, 38413, 0, 32453, 0],[0, 0, 27196, 0, 0, 0, 28391, 0, 4853, 0, 0, 27098, 43665, 0, 40387, 0, 0, 38272, -1, 0, 0, 0, 0, 0, 0, 0, 22942, 0, 0, 0, 0, 0, 44521, 0, 28634, 0, 38950, 0, 0, 6454, 0, 0, 36915, 0, 0, 43489, 0, 0, 0, 27818, 0, 41432, 35678, 0, 45811, 31244, 0, 33195, 0, 40225, 34355, 0, 0, 0, 0, 0, 0, 0, 0, 0, 0, 45322, 0, 35410, 39109, 9287, 0, 26263, 0, 0, 0, 0, 18414, 0, 0, 34192, 0, 0, 0, 0, 43526, 41149, 0, 0, 0, 0],[0, 0, 0, 0, 0, 0, 0, 0, 0, 0, 0, 0, 0, 34336, 0, 30561, 0, 26458, 0, -1, 0, 45764, 0, 18766, 25402, 0, 0, 41776, 43651, 0, 0, 0, 0, 37551, 23612, 35821, 0, 0, 8102, 0, 27431, 0, 0, 34556, 35526, 0, 0, 0, 0, 0, 12712, 0, 0, 0, 0, 0, 0, 0, 0, 0, 0, 0, 0, 0, 0, 0, 0, 0, 0, 0, 0, 0, 0, 0, 0, 41807, 0, 0, 0, 42027, 0, 0, 0, 32769, 0, 0, 0, 41696, 0, 0, 32225, 0, 0, 0, 46340, 0],[0, 0, 0, 15047, 39724, 0, 0, 0, 40088, 0, 0, 22422, 0, 45040, 19145, 0, 0, 0, 0, 0, -1, 0, 28890, 35525, 0, 0, 17707, 0, 0, 0, 24373, 0, 0, 21092, 0, 0, 44289, 32198, 33913, 0, 13953, 6112, 21039, 0, 36178, 0, 0, 0, 30493, 0, 0, 0, 27156, 36689, 0, 0, 39400, 0, 0, 0, 0, 0, 24321, 0, 0, 0, 0, 0, 0, 0, 0, 0, 0, 0, 27065, 0, 27581, 0, 0, 0, 0, 31063, 44695, 0, 0, 0, 0, 0, 0, 44610, 0, 12537, 0, 0, 0, 12755],[0, 0, 27493, 0, 0, 0, 0, 0, 0, 0, 0, 0, 0, 0, 0, 39845, 40083, 37906, 0, 45764, 0, -1, 0, 0, 0, 0, 0, 0, 0, 0, 0, 0, 32367, 0, 0, 0, 0, 0, 0, 0, 0, 0, 35569, 0, 0, 0, 26186, 0, 45846, 0, 29232, 0, 0, 24263, 0, 0, 29957, 0, 0, 0, 35234, 24015, 0, 0, 0, 0, 0, 0, 0, 0, 0, 23602, 0, 0, 0, 0, 0, 18787, 0, 0, 10979, 0, 45790, 0, 0, 0, 0, 0, 0, 0, 30840, 0, 0, 0, 18503, 0],[0, 2708, 40499, 0, 23850, 0, 0, 42007, 0, 16060, 0, 0, 0, 46021, 0, 0, 0, 0, 0, 0, 28890, 0, -1, 0, 0, 0, 0, 0, 0, 0, 0, 0, 25308, 0, 43703, 33507, 0, 44090, 0, 45388, 0, 0, 0, 0, 0, 0, 0, 0, 0, 0, 0, 46174, 0, 21036, 0, 41005, 0, 0, 0, 21691, 0, 0, 0, 0, 0, 33725, 18330, 0, 0, 0, 0, 38320, 0, 41396, 0, 0, 0, 0, 42619, 0, 0, 0, 0, 32276, 26605, 15581, 0, 0, 0, 0, 13341, 0, 0, 0, 0, 0],[0, 0, 0, 0, 0, 0, 0, 42433, 21923, 0, 0, 0, 41968, 0, 0, 0, 0, 0, 0, 18766, 35525, 0, 0, -1, 0, 0, 0, 25338, 0, 0, 0, 0, 0, 0, 0, 0, 0, 0, 0, 0, 0, 0, 0, 0, 0, 0, 0, 0, 0, 44277, 0, 40224, 33593, 16906, 12119, 0, 38030, 0, 0, 37075, 27453, 17567, 0, 0, 0, 0, 10653, 0, 8035, 0, 33581, 0, 0, 0, 0, 0, 36519, 0, 35224, 9377, 0, 0, 0, 0, 0, 0, 0, 0, 42453, 0, 0, 33213, 0, 12867, 0, 0],[0, 0, 0, 16203, 0, 0, 0, 10783, 0, 1800, 0, 0, 0, 44901, 0, 32899, 0, 21968, 0, 25402, 0, 0, 0, 0, -1, 25275, 0, 0, 0, 26493, 0, 45773, 33105, 0, 0, 0, 0, 12765, 0, 0, 0, 0, 39273, 0, 0, 0, 0, 0, 44329, 0, 0, 0, 0, 15590, 0, 15795, 43123, 41941, 46248, 0, 0, 0, 0, 33015, 36486, 0, 0, 0, 0, 0, 0, 0, 0, 28792, 0, 0, 0, 0, 0, 0, 0, 0, 0, 0, 39027, 0, 0, 20180, 0, 0, 36440, 22386, 13148, 0, 18155, 0],[0, 0, 0, 0, 33763, 0, 0, 44649, 42319, 0, 0, 0, 0, 0, 0, 0, 22898, 0, 0, 0, 0, 0, 0, 0, 25275, -1, 0, 0, 0, 39366, 0, 29074, 0, 0, 5695, 0, 0, 0, 0, 0, 0, 40184, 0, 0, 0, 0, 0, 0, 0, 0, 0, 0, 29030, 0, 0, 0, 0, 0, 0, 0, 0, 0, 10906, 15312, 0, 42322, 0, 0, 0, 0, 0, 0, 0, 0, 0, 0, 42231, 44040, 19347, 39085, 0, 0, 0, 0, 42563, 0, 0, 0, 33312, 0, 0, 0, 0, 0, 0, 0],[0, 0, 0, 0, 0, 45738, 0, 0, 0, 33078, 41156, 17364, 29095, 0, 0, 0, 0, 0, 22942, 0, 17707, 0, 0, 0, 0, 0, -1, 17068, 0, 37287, 0, 0, 0, 0, 41718, 0, 34742, 16323, 28570, 0, 0, 0, 0, 0, 0, 0, 0, 0, 20959, 14739, 0, 0, 0, 0, 0, 0, 0, 0, 0, 0, 0, 44003, 0, 0, 0, 0, 0, 43069, 0, 15329, 0, 0, 0, 0, 43011, 0, 0, 0, 39888, 0, 0, 0, 26020, 0, 0, 0, 46301, 0, 0, 0, 0, 0, 0, 0, 0, 0],[0, 0, 0, 0, 44091, 0, 0, 0, 0, 13075, 36643, 0, 42616, 38636, 0, 0, 39213, 0, 0, 41776, 0, 0, 0, 25338, 0, 0, 17068, -1, 0, 0, 0, 0, 0, 27887, 29126, 8983, 0, 20812, 0, 0, 0, 0, 39168, 42567, 18247, 42377, 0, 0, 0, 0, 0, 0, 0, 30306, 42077, 0, 0, 0, 0, 40361, 0, 0, 0, 38896, 0, 0, 27059, 0, 0, 0, 0, 0, 0, 0, 0, 0, 0, 0, 0, 0, 24233, 0, 0, 20541, 0, 0, 0, 0, 39561, 41145, 43698, 45481, 0, 0, 0, 41358],[0, 37054, 0, 0, 0, 0, 0, 30119, 0, 0, 0, 0, 39915, 20510, 0, 0, 0, 0, 0, 43651, 0, 0, 0, 0, 0, 0, 0, 0, -1, 26088, 0, 0, 0, 19959, 0, 0, 0, 0, 24524, 0, 0, 0, 0, 0, 0, 0, 0, 0, 0, 0, 0, 0, 0, 0, 0, 0, 0, 0, 32154, 0, 0, 0, 27168, 0, 26045, 0, 0, 0, 29707, 0, 0, 45336, 0, 0, 36501, 0, 35674, 28081, 0, 0, 0, 0, 0, 0, 30558, 33675, 35597, 0, 42985, 0, 27526, 0, 30809, 43120, 0, 32231],[36727, 20619, 0, 0, 0, 41946, 0, 10292, 0, 0, 20417, 0, 0, 40974, 0, 18710, 0, 0, 0, 0, 0, 0, 0, 0, 26493, 39366, 37287, 0, 26088, -1, 0, 0, 0, 0, 0, 0, 0, 0, 0, 0, 6649, 0, 0, 19561, 10594, 0, 0, 18798, 0, 35800, 0, 40364, 0, 16448, 7881, 0, 0, 0, 0, 0, 0, 4685, 0, 0, 0, 0, 0, 35494, 0, 0, 0, 32021, 41859, 0, 28476, 0, 0, 22773, 0, 0, 0, 0, 0, 0, 31438, 0, 0, 0, 0, 32084, 0, 0, 0, 21332, 29748, 17623],[0, 0, 0, 0, 35070, 32242, 0, 0, 0, 0, 31870, 21208, 0, 0, 21850, 43318, 0, 10601, 0, 0, 24373, 0, 0, 0, 0, 0, 0, 0, 0, 0, -1, 33660, 0, 0, 0, 0, 0, 0, 0, 0, 22463, 0, 25022, 0, 0, 0, 0, 0, 23789, 41104, 0, 0, 0, 0, 0, 43161, 0, 0, 0, 0, 0, 0, 40778, 37032, 0, 0, 34069, 0, 0, 0, 0, 45610, 0, 39979, 0, 27582, 0, 8856, 0, 30439, 0, 0, 0, 0, 0, 23190, 23023, 0, 30721, 0, 0, 0, 0, 37297, 0, 0],[0, 0, 0, 27143, 0, 43463, 19760, 0, 0, 33035, 39763, 18214, 9197, 0, 0, 0, 0, 41074, 0, 0, 0, 0, 0, 0, 45773, 29074, 0, 0, 0, 0, 33660, -1, 0, 0, 0, 0, 0, 27663, 18432, 0, 0, 0, 0, 0, 41114, 38814, 17118, 0, 39650, 0, 31509, 0, 35695, 0, 0, 0, 0, 0, 0, 0, 43533, 0, 0, 6103, 0, 0, 38374, 0, 31235, 39588, 44351, 0, 0, 0, 0, 0, 0, 31209, 27781, 36821, 0, 15233, 35968, 0, 0, 37498, 0, 45880, 44510, 0, 0, 0, 0, 12262, 0, 45794],[0, 0, 0, 0, 23108, 30788, 0, 0, 0, 0, 0, 4505, 43184, 44173, 0, 0, 0, 0, 44521, 0, 0, 32367, 25308, 0, 33105, 0, 0, 0, 0, 0, 0, 0, -1, 41775, 0, 40845, 0, 43828, 0, 0, 35654, 0, 0, 0, 0, 0, 42483, 0, 6967, 0, 0, 9195, 0, 0, 0, 0, 0, 0, 25103, 0, 0, 33283, 0, 0, 11884, 0, 0, 0, 0, 0, 0, 0, 0, 0, 0, 0, 0, 0, 0, 0, 0, 0, 0, 23242, 0, 0, 0, 39154, 0, 0, 23185, 41077, 0, 0, 0, 0],[0, 0, 39028, 0, 42172, 0, 0, 31123, 0, 0, 0, 0, 0, 36791, 0, 0, 44805, 29529, 0, 37551, 21092, 0, 0, 0, 0, 0, 0, 27887, 19959, 0, 0, 0, 41775, -1, 0, 0, 0, 0, 0, 39592, 0, 0, 0, 26926, 27582, 17153, 34675, 43703, 17436, 0, 33036, 0, 18572, 0, 0, 0, 0, 0, 0, 0, 39917, 0, 6999, 0, 0, 40388, 8769, 0, 37371, 0, 0, 39505, 27557, 0, 0, 0, 0, 46216, 0, 0, 0, 0, 0, 0, 0, 0, 907, 0, 0, 0, 0, 0, 0, 35854, 0, 0],[0, 0, 0, 0, 19886, 0, 0, 0, 0, 41891, 45275, 38343, 0, 0, 0, 24256, 0, 0, 28634, 23612, 0, 0, 43703, 0, 0, 5695, 41718, 29126, 0, 0, 0, 0, 0, 0, -1, 37276, 0, 44598, 0, 0, 0, 0, 0, 0, 0, 0, 0, 38863, 0, 0, 0, 30492, 0, 39885, 0, 4463, 0, 0, 0, 0, 0, 40322, 0, 26715, 0, 29448, 0, 0, 0, 0, 0, 0, 0, 0, 0, 0, 37216, 0, 0, 0, 0, 0, 0, 36443, 0, 28653, 0, 0, 0, 0, 27332, 0, 0, 0, 0, 0],[0, 0, 0, 0, 40082, 0, 0, 0, 0, 0, 44212, 8187, 38189, 0, 5492, 0, 0, 0, 0, 35821, 0, 0, 33507, 0, 0, 0, 0, 8983, 0, 0, 0, 0, 40845, 0, 37276, -1, 41181, 0, 0, 0, 25312, 0, 0, 14575, 0, 11065, 0, 0, 0, 18597, 0, 31187, 0, 0, 0, 45624, 0, 21535, 0, 0, 20451, 0, 28946, 0, 0, 30023, 0, 0, 0, 22437, 0, 30807, 31825, 0, 10995, 0, 0, 0, 19456, 0, 0, 21808, 0, 4924, 0, 36733, 0, 37837, 0, 0, 0, 0, 0, 0, 44297, 0],[19998, 0, 9352, 0, 31897, 0, 0, 0, 45341, 0, 39164, 0, 0, 0, 0, 0, 0, 0, 38950, 0, 44289, 0, 0, 0, 0, 0, 34742, 0, 0, 0, 0, 0, 0, 0, 0, 41181, -1, 0, 0, 0, 0, 0, 0, 0, 45207, 0, 0, 0, 0, 0, 0, 0, 20869, 0, 0, 0, 0, 0, 39756, 0, 0, 0, 0, 35464, 0, 36227, 0, 0, 0, 35695, 26685, 0, 43298, 0, 5219, 0, 0, 0, 0, 0, 0, 23851, 0, 0, 0, 0, 0, 0, 0, 0, 0, 0, 0, 0, 39575, 0],[0, 0, 0, 32536, 41111, 0, 0, 37259, 0, 0, 0, 37401, 0, 0, 0, 44613, 0, 0, 0, 0, 32198, 0, 44090, 0, 12765, 0, 16323, 20812, 0, 0, 0, 27663, 43828, 0, 44598, 0, 0, -1, 15575, 0, 0, 0, 0, 0, 0, 26209, 0, 0, 0, 9917, 0, 0, 0, 0, 0, 28625, 0, 0, 0, 0, 0, 0, 44625, 0, 0, 0, 0, 43719, 0, 0, 0, 0, 27251, 0, 0, 0, 0, 0, 0, 0, 0, 0, 0, 0, 0, 0, 0, 31416, 0, 0, 0, 0, 0, 18040, 37080, 23624],[27251, 11313, 0, 0, 0, 34765, 0, 41243, 0, 0, 0, 0, 0, 0, 0, 0, 0, 13861, 0, 8102, 33913, 0, 0, 0, 0, 0, 28570, 0, 24524, 0, 0, 18432, 0, 0, 0, 0, 0, 15575, -1, 0, 0, 0, 0, 0, 0, 43762, 0, 31721, 0, 0, 27285, 0, 0, 0, 0, 22002, 0, 0, 0, 0, 21775, 0, 0, 0, 24493, 0, 22828, 0, 0, 0, 0, 0, 0, 5297, 0, 0, 0, 0, 0, 0, 0, 0, 42502, 0, 0, 0, 40629, 0, 0, 21149, 0, 0, 18564, 13822, 0, 0],[40138, 0, 0, 36776, 0, 0, 0, 0, 0, 0, 0, 36886, 0, 0, 0, 0, 8780, 0, 6454, 0, 0, 0, 45388, 0, 0, 0, 0, 0, 0, 0, 0, 0, 0, 39592, 0, 0, 0, 0, 0, -1, 0, 0, 28374, 0, 0, 0, 0, 28568, 0, 0, 36981, 0, 0, 0, 26976, 19650, 0, 0, 0, 0, 22396, 0, 0, 0, 0, 0, 0, 0, 46315, 0, 0, 0, 44108, 0, 0, 0, 30756, 0, 35315, 0, 0, 24571, 17738, 0, 42148, 0, 0, 0, 0, 0, 0, 0, 0, 0, 31909, 46338],[0, 34607, 23646, 0, 31987, 0, 0, 0, 0, 28341, 0, 44164, 0, 0, 0, 0, 0, 0, 0, 27431, 13953, 0, 0, 0, 0, 0, 0, 0, 0, 6649, 22463, 0, 35654, 0, 0, 25312, 0, 0, 0, 0, -1, 0, 0, 0, 0, 37923, 0, 0, 0, 0, 43913, 0, 38174, 0, 0, 26464, 0, 0, 13572, 44168, 0, 0, 0, 0, 0, 0, 0, 0, 42353, 0, 0, 0, 0, 0, 0, 33012, 45377, 0, 40511, 0, 0, 0, 0, 0, 0, 0, 0, 0, 17776, 0, 11634, 0, 0, 0, 0, 0],[27911, 0, 0, 42145, 21273, 0, 0, 0, 0, 0, 0, 43771, 0, 0, 0, 0, 0, 0, 0, 0, 6112, 0, 0, 0, 0, 40184, 0, 0, 0, 0, 0, 0, 0, 0, 0, 0, 0, 0, 0, 0, 0, -1, 0, 0, 0, 0, 0, 36929, 26620, 0, 45442, 0, 0, 0, 42489, 0, 0, 0, 0, 36271, 0, 35675, 0, 36166, 0, 0, 0, 0, 0, 0, 0, 0, 0, 0, 0, 39255, 0, 37781, 31111, 0, 0, 0, 46231, 0, 0, 13047, 41095, 0, 0, 0, 0, 0, 0, 0, 0, 17592],[32945, 0, 34960, 0, 0, 0, 0, 0, 0, 33733, 0, 0, 0, 34125, 16607, 0, 0, 0, 36915, 0, 21039, 35569, 0, 0, 39273, 0, 0, 39168, 0, 0, 25022, 0, 0, 0, 0, 0, 0, 0, 0, 28374, 0, 0, -1, 40438, 0, 0, 26878, 0, 0, 0, 0, 20328, 0, 0, 0, 0, 30670, 0, 37664, 30636, 29989, 0, 38274, 0, 6258, 0, 15490, 0, 0, 0, 0, 0, 13435, 0, 0, 26904, 0, 0, 13431, 40419, 0, 0, 0, 0, 0, 0, 45017, 0, 0, 41405, 37304, 0, 0, 0, 0, 0],[0, 0, 0, 0, 0, 0, 22784, 0, 0, 0, 0, 14160, 0, 0, 0, 0, 0, 0, 0, 34556, 0, 0, 0, 0, 0, 0, 0, 42567, 0, 19561, 0, 0, 0, 26926, 0, 14575, 0, 0, 0, 0, 0, 0, 40438, -1, 0, 41839, 0, 22276, 0, 0, 37740, 26818, 0, 40857, 17093, 0, 0, 0, 0, 45859, 0, 26893, 0, 0, 0, 0, 0, 0, 11635, 0, 34569, 0, 0, 0, 0, 0, 0, 38277, 0, 36281, 0, 0, 0, 34989, 0, 0, 0, 0, 0, 0, 37787, 0, 0, 0, 0, 29052],[36540, 0, 0, 0, 0, 18831, 39355, 26850, 15142, 0, 0, 45089, 0, 0, 0, 0, 0, 0, 0, 35526, 36178, 0, 0, 0, 0, 0, 0, 18247, 0, 10594, 0, 41114, 0, 27582, 0, 0, 45207, 0, 0, 0, 0, 0, 0, 0, -1, 0, 0, 0, 0, 29901, 0, 0, 24416, 0, 0, 0, 36071, 0, 0, 27581, 39156, 0, 0, 0, 0, 0, 0, 0, 30427, 0, 0, 0, 0, 0, 36065, 0, 27915, 0, 0, 23876, 0, 0, 0, 0, 0, 0, 0, 0, 0, 43548, 0, 0, 0, 0, 0, 0],[0, 0, 0, 0, 0, 0, 0, 35133, 43472, 0, 0, 0, 18502, 0, 0, 0, 0, 33008, 43489, 0, 0, 0, 0, 0, 0, 0, 0, 42377, 0, 0, 0, 38814, 0, 17153, 0, 11065, 0, 26209, 43762, 0, 37923, 0, 0, 41839, 0, -1, 0, 0, 0, 0, 0, 0, 0, 0, 42486, 0, 0, 0, 0, 0, 15379, 0, 35687, 0, 35514, 0, 0, 0, 0, 0, 0, 0, 0, 19118, 0, 0, 0, 20285, 25803, 0, 0, 0, 31591, 41222, 27359, 0, 0, 0, 0, 0, 0, 0, 41133, 13518, 38509, 0],[0, 29985, 0, 0, 0, 40272, 36353, 45001, 42672, 0, 0, 0, 8990, 0, 0, 0, 16966, 0, 0, 0, 0, 26186, 0, 0, 0, 0, 0, 0, 0, 0, 0, 17118, 42483, 34675, 0, 0, 0, 0, 0, 0, 0, 0, 26878, 0, 0, 0, -1, 0, 0, 42320, 42430, 0, 0, 17984, 0, 0, 0, 0, 0, 29560, 0, 0, 0, 30217, 0, 0, 28508, 36407, 29694, 0, 44807, 0, 44944, 34398, 0, 0, 0, 0, 0, 0, 31781, 0, 0, 0, 0, 0, 0, 0, 0, 43316, 15240, 0, 0, 0, 0, 4649],[0, 0, 0, 0, 0, 32606, 0, 34997, 0, 0, 18421, 0, 0, 0, 0, 0, 0, 0, 0, 0, 0, 0, 0, 0, 0, 0, 0, 0, 0, 18798, 0, 0, 0, 43703, 38863, 0, 0, 0, 31721, 28568, 0, 36929, 0, 22276, 0, 0, 0, -1, 0, 40437, 0, 0, 0, 0, 0, 0, 0, 18672, 33881, 0, 41910, 0, 0, 21948, 31418, 0, 0, 0, 0, 0, 0, 0, 0, 0, 0, 0, 0, 41229, 0, 0, 0, 0, 0, 0, 0, 0, 0, 0, 0, 37646, 0, 0, 0, 0, 0, 0],[34065, 0, 0, 0, 0, 0, 32281, 0, 0, 0, 0, 41930, 0, 41471, 0, 0, 0, 0, 0, 0, 30493, 45846, 0, 0, 44329, 0, 20959, 0, 0, 0, 23789, 39650, 6967, 17436, 0, 0, 0, 0, 0, 0, 0, 26620, 0, 0, 0, 0, 0, 0, -1, 37521, 0, 11101, 0, 0, 0, 0, 0, 0, 0, 0, 0, 0, 0, 23935, 0, 0, 0, 0, 0, 0, 0, 0, 0, 0, 0, 0, 0, 0, 0, 0, 0, 0, 22762, 0, 0, 0, 33144, 0, 0, 0, 0, 0, 0, 0, 0, 0],[0, 0, 0, 0, 0, 0, 0, 0, 0, 0, 0, 0, 0, 0, 0, 0, 0, 36731, 27818, 0, 0, 0, 0, 44277, 0, 0, 14739, 0, 0, 35800, 41104, 0, 0, 0, 0, 18597, 0, 9917, 0, 0, 0, 0, 0, 0, 29901, 0, 42320, 40437, 37521, -1, 0, 0, 0, 17695, 0, 16280, 30855, 0, 0, 0, 18246, 30530, 0, 0, 0, 0, 0, 45396, 22223, 0, 0, 0, 0, 0, 0, 0, 0, 0, 25809, 0, 0, 0, 23107, 0, 0, 34250, 0, 0, 0, 0, 0, 0, 0, 0, 36135, 0],[0, 13657, 0, 0, 0, 0, 0, 0, 0, 0, 0, 0, 0, 0, 43501, 0, 0, 33292, 0, 12712, 0, 29232, 0, 0, 0, 0, 0, 0, 0, 0, 0, 31509, 0, 33036, 0, 0, 0, 0, 27285, 36981, 43913, 45442, 0, 37740, 0, 0, 42430, 0, 0, 0, -1, 0, 0, 0, 0, 42665, 0, 0, 0, 0, 42084, 0, 0, 28431, 11793, 0, 0, 0, 0, 0, 0, 31353, 0, 0, 34967, 0, 41260, 0, 0, 0, 0, 21767, 0, 45254, 0, 0, 0, 0, 0, 0, 0, 0, 0, 0, 0, 42087],[0, 0, 37457, 7730, 0, 0, 22495, 21612, 0, 33688, 0, 0, 0, 0, 22614, 0, 0, 0, 41432, 0, 0, 0, 46174, 40224, 0, 0, 0, 0, 0, 40364, 0, 0, 9195, 0, 30492, 31187, 0, 0, 0, 0, 0, 0, 20328, 26818, 0, 0, 0, 0, 11101, 0, 0, -1, 0, 0, 41650, 0, 17342, 0, 0, 0, 0, 0, 0, 0, 23874, 20420, 32154, 35224, 0, 0, 23558, 0, 0, 36062, 0, 0, 0, 40257, 45479, 0, 0, 42166, 0, 0, 34243, 9139, 0, 0, 0, 0, 0, 21468, 0, 0, 0, 0],[0, 37952, 29610, 36110, 0, 0, 0, 0, 42251, 0, 0, 0, 0, 0, 0, 0, 25976, 0, 35678, 0, 27156, 0, 0, 33593, 0, 29030, 0, 0, 0, 0, 0, 35695, 0, 18572, 0, 0, 20869, 0, 0, 0, 38174, 0, 0, 0, 24416, 0, 0, 0, 0, 0, 0, 0, -1, 0, 0, 0, 0, 38690, 0, 0, 43515, 0, 0, 0, 0, 29222, 25383, 0, 0, 0, 0, 42093, 0, 0, 0, 4804, 0, 0, 0, 43096, 40745, 0, 0, 0, 0, 39857, 45249, 37245, 0, 29549, 0, 0, 0, 0, 0, 0],[44900, 0, 0, 0, 32221, 28959, 25393, 0, 0, 0, 0, 0, 36804, 29585, 0, 0, 0, 0, 0, 0, 36689, 24263, 21036, 16906, 15590, 0, 0, 30306, 0, 16448, 0, 0, 0, 0, 39885, 0, 0, 0, 0, 0, 0, 0, 0, 40857, 0, 0, 17984, 0, 0, 17695, 0, 0, 0, -1, 22838, 0, 0, 0, 16564, 18926, 0, 0, 21992, 0, 0, 0, 0, 0, 0, 0, 27690, 0, 28427, 0, 0, 0, 42571, 0, 0, 0, 0, 0, 0, 18184, 0, 0, 0, 0, 0, 0, 0, 0, 0, 0, 0, 0],[0, 0, 0, 0, 44476, 0, 23027, 0, 12992, 0, 0, 0, 38143, 0, 0, 0, 0, 0, 45811, 0, 0, 0, 0, 12119, 0, 0, 0, 42077, 0, 7881, 0, 0, 0, 0, 0, 0, 0, 0, 0, 26976, 0, 42489, 0, 17093, 0, 42486, 0, 0, 0, 0, 0, 41650, 0, 22838, -1, 0, 0, 0, 0, 0, 0, 0, 45285, 0, 0, 22828, 0, 44331, 16363, 40861, 0, 41984, 0, 0, 0, 0, 0, 0, 0, 0, 0, 0, 42729, 0, 43741, 0, 0, 0, 0, 24193, 0, 9602, 0, 0, 11275, 0],[0, 0, 0, 0, 0, 0, 0, 46095, 46241, 0, 0, 0, 39344, 0, 0, 0, 0, 34880, 31244, 0, 0, 0, 41005, 0, 15795, 0, 0, 0, 0, 0, 43161, 0, 0, 0, 4463, 45624, 0, 28625, 22002, 19650, 26464, 0, 0, 0, 0, 0, 0, 0, 0, 16280, 42665, 0, 0, 0, 0, -1, 0, 0, 0, 32049, 0, 0, 19634, 0, 0, 0, 15821, 0, 17999, 0, 0, 31765, 0, 0, 0, 17222, 0, 4806, 0, 0, 26963, 0, 45005, 0, 0, 0, 25367, 0, 0, 0, 0, 0, 0, 0, 0, 29558],[41103, 0, 0, 0, 0, 0, 42695, 0, 0, 0, 40016, 37943, 21429, 0, 0, 0, 0, 0, 0, 0, 39400, 29957, 0, 38030, 43123, 0, 0, 0, 0, 0, 0, 0, 0, 0, 0, 0, 0, 0, 0, 0, 0, 0, 30670, 0, 36071, 0, 0, 0, 0, 30855, 0, 17342, 0, 0, 0, 0, -1, 0, 0, 0, 0, 0, 0, 0, 0, 38704, 0, 0, 0, 0, 0, 0, 4743, 0, 0, 0, 0, 0, 0, 0, 0, 0, 45633, 34424, 0, 0, 0, 0, 0, 40698, 0, 0, 0, 0, 0, 0],[0, 0, 0, 0, 0, 0, 0, 40426, 0, 0, 39784, 0, 0, 0, 0, 0, 0, 23483, 33195, 0, 0, 0, 0, 0, 41941, 0, 0, 0, 0, 0, 0, 0, 0, 0, 0, 21535, 0, 0, 0, 0, 0, 0, 0, 0, 0, 0, 0, 18672, 0, 0, 0, 0, 38690, 0, 0, 0, 0, -1, 0, 33174, 0, 0, 24319, 0, 0, 33082, 0, 0, 0, 0, 0, 0, 0, 33639, 0, 0, 0, 0, 0, 46032, 0, 0, 43131, 0, 0, 0, 34502, 0, 0, 0, 0, 0, 16937, 0, 43432, 0],[19707, 0, 40728, 20089, 0, 0, 0, 0, 0, 26562, 0, 0, 0, 30536, 0, 0, 43449, 36318, 0, 0, 0, 0, 0, 0, 46248, 0, 0, 0, 32154, 0, 0, 0, 25103, 0, 0, 0, 39756, 0, 0, 0, 13572, 0, 37664, 0, 0, 0, 0, 33881, 0, 0, 0, 0, 0, 16564, 0, 0, 0, 0, -1, 0, 0, 23390, 0, 0, 0, 0, 0, 0, 0, 32535, 0, 0, 0, 0, 0, 0, 0, 27840, 34439, 39267, 0, 0, 0, 0, 0, 0, 0, 0, 0, 0, 0, 0, 0, 28927, 0, 0],[0, 42562, 0, 0, 0, 30513, 0, 17458, 0, 44651, 0, 0, 0, 0, 0, 0, 0, 17273, 40225, 0, 0, 0, 21691, 37075, 0, 0, 0, 40361, 0, 0, 0, 0, 0, 0, 0, 0, 0, 0, 0, 0, 44168, 36271, 30636, 45859, 27581, 0, 29560, 0, 0, 0, 0, 0, 0, 18926, 0, 32049, 0, 33174, 0, -1, 0, 0, 0, 0, 36872, 0, 0, 0, 0, 0, 0, 0, 0, 0, 18656, 0, 0, 0, 0, 30297, 8891, 45323, 25871, 0, 41113, 0, 0, 0, 38499, 0, 0, 31656, 0, 0, 0, 0],[0, 0, 42654, 0, 0, 0, 0, 0, 29022, 28244, 0, 26463, 0, 24824, 0, 0, 0, 0, 34355, 0, 0, 35234, 0, 27453, 0, 0, 0, 0, 0, 0, 0, 43533, 0, 39917, 0, 20451, 0, 0, 21775, 22396, 0, 0, 29989, 0, 39156, 15379, 0, 41910, 0, 18246, 42084, 0, 43515, 0, 0, 0, 0, 0, 0, 0, -1, 0, 0, 0, 0, 0, 0, 0, 14485, 0, 0, 3059, 0, 0, 0, 0, 0, 37628, 0, 0, 0, 0, 0, 0, 0, 0, 0, 0, 0, 0, 0, 0, 0, 30660, 0, 0],[0, 0, 45923, 0, 0, 0, 38565, 0, 0, 36214, 0, 0, 0, 0, 0, 36632, 0, 0, 0, 0, 0, 24015, 0, 17567, 0, 0, 44003, 0, 0, 4685, 0, 0, 33283, 0, 40322, 0, 0, 0, 0, 0, 0, 35675, 0, 26893, 0, 0, 0, 0, 0, 30530, 0, 0, 0, 0, 0, 0, 0, 0, 23390, 0, 0, -1, 0, 0, 0, 0, 0, 0, 30756, 0, 0, 0, 0, 21225, 0, 0, 0, 39199, 0, 0, 0, 0, 0, 0, 31596, 0, 0, 0, 0, 0, 0, 0, 0, 0, 26555, 0],[0, 0, 36603, 0, 0, 28926, 0, 0, 0, 46098, 0, 0, 44036, 0, 0, 0, 36008, 0, 0, 0, 24321, 0, 0, 0, 0, 10906, 0, 0, 27168, 0, 40778, 0, 0, 6999, 0, 28946, 0, 44625, 0, 0, 0, 0, 38274, 0, 0, 35687, 0, 0, 0, 0, 0, 0, 0, 21992, 45285, 19634, 0, 24319, 0, 0, 0, 0, -1, 0, 0, 0, 0, 0, 0, 0, 0, 0, 42725, 31162, 26199, 0, 0, 0, 0, 0, 8098, 0, 0, 0, 0, 0, 0, 0, 0, 30510, 0, 0, 0, 0, 0, 0],[11422, 0, 0, 0, 0, 0, 0, 31348, 0, 0, 15919, 40321, 42047, 0, 0, 0, 0, 0, 0, 0, 0, 0, 0, 0, 33015, 15312, 0, 38896, 0, 0, 37032, 6103, 0, 0, 26715, 0, 35464, 0, 0, 0, 0, 36166, 0, 0, 0, 0, 30217, 21948, 23935, 0, 28431, 0, 0, 0, 0, 0, 0, 0, 0, 0, 0, 0, 0, -1, 0, 0, 0, 0, 0, 0, 24035, 0, 0, 0, 28914, 0, 0, 0, 0, 0, 0, 0, 0, 0, 34440, 0, 0, 0, 0, 41944, 0, 0, 0, 0, 29839, 0],[0, 0, 0, 0, 39698, 17785, 0, 0, 0, 0, 11135, 26340, 0, 0, 0, 0, 0, 0, 0, 0, 0, 0, 0, 0, 36486, 0, 0, 0, 26045, 0, 0, 0, 11884, 0, 0, 0, 0, 0, 24493, 0, 0, 0, 6258, 0, 0, 35514, 0, 31418, 0, 0, 11793, 23874, 0, 0, 0, 0, 0, 0, 0, 36872, 0, 0, 0, 0, -1, 0, 0, 0, 0, 0, 0, 16207, 0, 22958, 0, 0, 0, 0, 0, 0, 0, 21475, 0, 0, 0, 0, 42880, 0, 0, 0, 34805, 0, 0, 0, 0, 0],[32661, 0, 43395, 0, 16024, 45135, 0, 0, 27794, 0, 0, 0, 0, 0, 0, 0, 0, 43269, 0, 0, 0, 0, 33725, 0, 0, 42322, 0, 0, 0, 0, 0, 0, 0, 40388, 29448, 30023, 36227, 0, 0, 0, 0, 0, 0, 0, 0, 0, 0, 0, 0, 0, 0, 20420, 29222, 0, 22828, 0, 38704, 33082, 0, 0, 0, 0, 0, 0, 0, -1, 0, 0, 0, 0, 0, 0, 26128, 0, 0, 0, 0, 0, 45385, 40318, 0, 0, 0, 0, 0, 0, 0, 18927, 0, 0, 0, 25954, 0, 0, 0, 0],[0, 0, 0, 0, 0, 0, 0, 0, 0, 44198, 0, 0, 0, 29080, 0, 40809, 37088, 0, 0, 0, 0, 0, 18330, 10653, 0, 0, 0, 27059, 0, 0, 34069, 38374, 0, 8769, 0, 0, 0, 0, 22828, 0, 0, 0, 15490, 0, 0, 0, 28508, 0, 0, 0, 0, 32154, 25383, 0, 0, 15821, 0, 0, 0, 0, 0, 0, 0, 0, 0, 0, -1, 0, 0, 0, 0, 0, 44168, 0, 0, 0, 0, 34241, 16937, 0, 0, 36533, 45698, 0, 0, 0, 0, 44663, 0, 0, 38080, 37586, 0, 34098, 0, 0],[34906, 0, 7518, 0, 0, 0, 0, 0, 23007, 0, 0, 0, 0, 0, 0, 0, 29888, 0, 0, 0, 0, 0, 0, 0, 0, 0, 43069, 0, 0, 35494, 0, 0, 0, 0, 0, 0, 0, 43719, 0, 0, 0, 0, 0, 0, 0, 0, 36407, 0, 0, 45396, 0, 35224, 0, 0, 44331, 0, 0, 0, 0, 0, 0, 0, 0, 0, 0, 0, 0, -1, 0, 41807, 0, 30667, 0, 0, 0, 0, 44160, 25712, 0, 14145, 0, 0, 0, 36753, 0, 0, 0, 0, 0, 0, 0, 29486, 0, 21483, 0, 0],[0, 0, 15608, 0, 0, 0, 0, 0, 0, 0, 0, 0, 0, 0, 0, 0, 0, 0, 0, 0, 0, 0, 0, 8035, 0, 0, 0, 0, 29707, 0, 0, 31235, 0, 37371, 0, 0, 0, 0, 0, 46315, 42353, 0, 0, 11635, 30427, 0, 29694, 0, 0, 22223, 0, 0, 0, 0, 16363, 17999, 0, 0, 0, 0, 14485, 30756, 0, 0, 0, 0, 0, 0, -1, 0, 0, 0, 37331, 34810, 44846, 0, 0, 0, 0, 0, 0, 44307, 0, 0, 0, 0, 37238, 0, 25952, 0, 0, 0, 0, 0, 0, 0],[38471, 45612, 33852, 44119, 0, 0, 0, 0, 14340, 0, 0, 14334, 10494, 0, 0, 29461, 0, 0, 0, 0, 0, 0, 0, 0, 0, 0, 15329, 0, 0, 0, 0, 39588, 0, 0, 0, 22437, 35695, 0, 0, 0, 0, 0, 0, 0, 0, 0, 0, 0, 0, 0, 0, 0, 0, 0, 40861, 0, 0, 0, 32535, 0, 0, 0, 0, 0, 0, 0, 0, 41807, 0, -1, 0, 24219, 0, 0, 0, 0, 26705, 0, 0, 0, 0, 0, 0, 0, 0, 25547, 39567, 0, 0, 0, 0, 0, 0, 0, 37956, 0],[0, 0, 0, 30439, 0, 0, 0, 0, 13450, 33971, 0, 33685, 0, 43366, 0, 0, 0, 0, 0, 0, 0, 0, 0, 33581, 0, 0, 0, 0, 0, 0, 0, 44351, 0, 0, 0, 0, 26685, 0, 0, 0, 0, 0, 0, 34569, 0, 0, 44807, 0, 0, 0, 0, 23558, 0, 27690, 0, 0, 0, 0, 0, 0, 0, 0, 0, 24035, 0, 0, 0, 0, 0, 0, -1, 0, 0, 0, 0, 43765, 0, 38551, 0, 0, 0, 0, 0, 0, 0, 0, 0, 0, 0, 14994, 0, 7876, 41850, 0, 0, 0],[0, 0, 0, 15771, 0, 0, 0, 0, 0, 7536, 0, 0, 15710, 31473, 0, 0, 0, 37785, 45322, 0, 0, 23602, 38320, 0, 0, 0, 0, 0, 45336, 32021, 45610, 0, 0, 39505, 0, 30807, 0, 0, 0, 0, 0, 0, 0, 0, 0, 0, 0, 0, 0, 0, 31353, 0, 42093, 0, 41984, 31765, 0, 0, 0, 0, 3059, 0, 0, 0, 16207, 0, 0, 30667, 0, 24219, 0, -1, 0, 9856, 0, 0, 0, 32991, 25125, 0, 0, 15623, 0, 32878, 0, 35125, 7083, 22731, 0, 0, 0, 0, 24446, 0, 0, 0],[35402, 0, 19955, 0, 0, 0, 11932, 0, 0, 29965, 0, 0, 0, 38823, 0, 0, 40077, 27789, 0, 0, 0, 0, 0, 0, 0, 0, 0, 0, 0, 41859, 0, 0, 0, 27557, 0, 31825, 43298, 27251, 0, 44108, 0, 0, 13435, 0, 0, 0, 44944, 0, 0, 0, 0, 0, 0, 28427, 0, 0, 4743, 0, 0, 0, 0, 0, 42725, 0, 0, 26128, 44168, 0, 37331, 0, 0, 0, -1, 0, 35446, 35171, 0, 0, 0, 11036, 0, 0, 0, 17945, 0, 16844, 0, 43626, 0, 15908, 43169, 0, 0, 0, 0, 43465],[0, 0, 0, 0, 0, 0, 0, 0, 0, 36636, 0, 0, 43103, 0, 0, 0, 0, 0, 35410, 0, 0, 0, 41396, 0, 28792, 0, 0, 0, 0, 0, 39979, 0, 0, 0, 0, 0, 0, 0, 5297, 0, 0, 0, 0, 0, 0, 19118, 34398, 0, 0, 0, 0, 36062, 0, 0, 0, 0, 0, 33639, 0, 0, 0, 21225, 31162, 0, 22958, 0, 0, 0, 34810, 0, 0, 9856, 0, -1, 0, 0, 0, 22357, 0, 0, 0, 0, 37571, 0, 0, 0, 0, 0, 0, 0, 0, 27599, 0, 0, 32885, 0],[0, 0, 0, 0, 0, 0, 0, 0, 0, 36262, 0, 0, 0, 36802, 0, 0, 41597, 12397, 39109, 0, 27065, 0, 0, 0, 0, 0, 43011, 0, 36501, 28476, 0, 0, 0, 0, 0, 10995, 5219, 0, 0, 0, 0, 0, 0, 0, 36065, 0, 0, 0, 0, 0, 34967, 0, 0, 0, 0, 0, 0, 0, 0, 18656, 0, 0, 26199, 28914, 0, 0, 0, 0, 44846, 0, 0, 0, 35446, 0, -1, 0, 0, 0, 0, 0, 0, 0, 0, 0, 0, 0, 0, 0, 36529, 30999, 44439, 38992, 0, 0, 31142, 0],[0, 0, 0, 0, 0, 0, 34545, 0, 0, 31541, 0, 0, 0, 29608, 0, 0, 0, 0, 9287, 41807, 0, 0, 0, 0, 0, 0, 0, 0, 0, 0, 27582, 0, 0, 0, 0, 0, 0, 0, 0, 0, 33012, 39255, 26904, 0, 0, 0, 0, 0, 0, 0, 0, 0, 4804, 0, 0, 17222, 0, 0, 0, 0, 0, 0, 0, 0, 0, 0, 0, 0, 0, 0, 43765, 0, 35171, 0, 0, -1, 0, 0, 0, 22601, 0, 10613, 0, 0, 37544, 0, 32461, 0, 0, 0, 0, 0, 0, 15080, 0, 0],[0, 0, 0, 11250, 0, 0, 0, 0, 42748, 18016, 0, 29625, 33137, 45284, 0, 0, 0, 0, 0, 0, 27581, 0, 0, 36519, 0, 42231, 0, 0, 35674, 0, 0, 0, 0, 0, 37216, 0, 0, 0, 0, 30756, 45377, 0, 0, 0, 27915, 0, 0, 0, 0, 0, 41260, 0, 0, 42571, 0, 0, 0, 0, 0, 0, 0, 0, 0, 0, 0, 0, 0, 44160, 0, 26705, 0, 0, 0, 0, 0, 0, -1, 0, 19947, 0, 0, 31488, 19000, 0, 0, 0, 0, 0, 0, 0, 46195, 46216, 22330, 0, 0, 0],[5219, 43237, 0, 0, 0, 0, 0, 18620, 0, 21210, 38754, 36519, 0, 0, 0, 0, 0, 0, 26263, 0, 0, 18787, 0, 0, 0, 44040, 0, 0, 28081, 22773, 8856, 31209, 0, 46216, 0, 0, 0, 0, 0, 0, 0, 37781, 0, 38277, 0, 20285, 0, 41229, 0, 0, 0, 40257, 0, 0, 0, 4806, 0, 0, 27840, 0, 37628, 39199, 0, 0, 0, 0, 34241, 25712, 0, 0, 38551, 32991, 0, 22357, 0, 0, 0, -1, 0, 0, 0, 0, 0, 0, 36010, 0, 0, 0, 0, 17251, 0, 0, 44867, 0, 0, 35537],[30544, 0, 34142, 23587, 0, 0, 46264, 40877, 13717, 0, 37679, 0, 34455, 10310, 0, 0, 0, 28696, 0, 0, 0, 0, 42619, 35224, 0, 19347, 39888, 0, 0, 0, 0, 27781, 0, 0, 0, 19456, 0, 0, 0, 35315, 40511, 31111, 13431, 0, 0, 25803, 0, 0, 0, 25809, 0, 45479, 0, 0, 0, 0, 0, 0, 34439, 0, 0, 0, 0, 0, 0, 45385, 16937, 0, 0, 0, 0, 25125, 0, 0, 0, 0, 19947, 0, -1, 0, 0, 0, 0, 0, 34833, 0, 0, 0, 0, 0, 0, 0, 7560, 30541, 21404, 0],[0, 0, 45501, 0, 32653, 0, 0, 0, 43007, 0, 0, 0, 35758, 0, 0, 0, 0, 0, 0, 42027, 0, 0, 0, 9377, 0, 39085, 0, 0, 0, 0, 30439, 36821, 0, 0, 0, 0, 0, 0, 0, 0, 0, 0, 40419, 36281, 23876, 0, 0, 0, 0, 0, 0, 0, 43096, 0, 0, 0, 0, 46032, 39267, 30297, 0, 0, 0, 0, 0, 40318, 0, 14145, 0, 0, 0, 0, 11036, 0, 0, 22601, 0, 0, 0, -1, 0, 26296, 0, 19827, 0, 0, 0, 25823, 0, 0, 0, 0, 0, 27062, 0, 32134],[31433, 43951, 0, 0, 0, 0, 0, 0, 0, 0, 0, 0, 0, 23575, 0, 29703, 0, 0, 0, 0, 0, 10979, 0, 0, 0, 0, 0, 24233, 0, 0, 0, 0, 0, 0, 0, 0, 0, 0, 0, 0, 0, 0, 0, 0, 0, 0, 31781, 0, 0, 0, 0, 0, 40745, 0, 0, 26963, 0, 0, 0, 8891, 0, 0, 8098, 0, 0, 0, 0, 0, 0, 0, 0, 0, 0, 0, 0, 0, 0, 0, 0, 0, -1, 0, 20321, 44760, 39755, 0, 34288, 0, 0, 0, 20254, 0, 37183, 0, 0, 0],[0, 0, 0, 0, 0, 0, 0, 0, 0, 0, 43190, 0, 0, 18021, 0, 41506, 0, 0, 0, 0, 31063, 0, 0, 0, 0, 0, 0, 0, 0, 0, 0, 15233, 0, 0, 0, 21808, 23851, 0, 0, 24571, 0, 0, 0, 0, 0, 0, 0, 0, 0, 0, 21767, 42166, 0, 0, 0, 0, 0, 0, 0, 45323, 0, 0, 0, 0, 21475, 0, 36533, 0, 44307, 0, 0, 15623, 0, 0, 0, 10613, 31488, 0, 0, 26296, 0, -1, 0, 0, 0, 32499, 0, 0, 30039, 0, 0, 26468, 0, 0, 0, 39304],[0, 32662, 0, 0, 26289, 0, 0, 21826, 0, 0, 0, 0, 0, 0, 0, 0, 0, 45197, 18414, 0, 44695, 45790, 0, 0, 0, 0, 26020, 0, 0, 0, 0, 35968, 0, 0, 0, 0, 0, 0, 42502, 17738, 0, 46231, 0, 0, 0, 31591, 0, 0, 22762, 23107, 0, 0, 0, 0, 42729, 45005, 45633, 43131, 0, 25871, 0, 0, 0, 0, 0, 0, 45698, 0, 0, 0, 0, 0, 0, 37571, 0, 0, 19000, 0, 0, 0, 20321, 0, -1, 0, 21457, 0, 0, 40884, 0, 0, 31306, 0, 0, 6716, 6451, 0],[0, 45376, 0, 32538, 39221, 19072, 0, 0, 0, 37761, 39084, 36798, 0, 0, 29453, 0, 0, 39266, 0, 32769, 0, 0, 32276, 0, 0, 0, 0, 20541, 0, 0, 0, 0, 23242, 0, 36443, 4924, 0, 0, 0, 0, 0, 0, 0, 34989, 0, 41222, 0, 0, 0, 0, 45254, 0, 0, 18184, 0, 0, 34424, 0, 0, 0, 0, 0, 0, 0, 0, 0, 0, 36753, 0, 0, 0, 32878, 17945, 0, 0, 0, 0, 0, 0, 19827, 44760, 0, 0, -1, 0, 0, 0, 0, 0, 0, 35133, 0, 0, 0, 0, 0],[0, 0, 0, 14145, 0, 0, 45349, 23701, 38256, 0, 0, 0, 0, 28136, 27123, 0, 31889, 0, 0, 0, 0, 0, 26605, 0, 39027, 42563, 0, 0, 30558, 31438, 0, 0, 0, 0, 0, 0, 0, 0, 0, 42148, 0, 0, 0, 0, 0, 27359, 0, 0, 0, 0, 0, 34243, 0, 0, 43741, 0, 0, 0, 0, 41113, 0, 31596, 0, 34440, 0, 0, 0, 0, 0, 0, 0, 0, 0, 0, 0, 37544, 0, 36010, 34833, 0, 39755, 0, 21457, 0, -1, 0, 0, 0, 0, 0, 0, 0, 30706, 0, 0, 37939],[0, 0, 0, 0, 0, 0, 0, 0, 0, 0, 29742, 0, 0, 0, 35885, 0, 39483, 0, 34192, 0, 0, 0, 15581, 0, 0, 0, 0, 0, 33675, 0, 23190, 37498, 0, 0, 28653, 36733, 0, 0, 0, 0, 0, 13047, 0, 0, 0, 0, 0, 0, 0, 34250, 0, 9139, 39857, 0, 0, 0, 0, 0, 0, 0, 0, 0, 0, 0, 0, 0, 0, 0, 0, 25547, 0, 35125, 16844, 0, 0, 0, 0, 0, 0, 0, 0, 32499, 0, 0, 0, -1, 37304, 0, 0, 41531, 0, 0, 0, 0, 21632, 0],[12885, 22193, 0, 0, 0, 38825, 0, 0, 0, 0, 0, 0, 0, 19973, 0, 0, 28878, 0, 0, 0, 0, 0, 0, 0, 0, 0, 46301, 0, 35597, 0, 23023, 0, 0, 907, 0, 0, 0, 0, 40629, 0, 0, 41095, 45017, 0, 0, 0, 0, 0, 33144, 0, 0, 0, 45249, 0, 0, 25367, 0, 34502, 0, 0, 0, 0, 0, 0, 42880, 0, 0, 0, 37238, 39567, 0, 7083, 0, 0, 0, 32461, 0, 0, 0, 0, 34288, 0, 0, 0, 0, 37304, -1, 0, 0, 32004, 0, 0, 0, 0, 46052, 0],[20328, 0, 0, 0, 0, 0, 31138, 0, 0, 44627, 0, 0, 0, 0, 0, 0, 0, 24900, 0, 41696, 0, 0, 0, 0, 20180, 0, 0, 0, 0, 0, 0, 45880, 39154, 0, 0, 37837, 0, 31416, 0, 0, 0, 0, 0, 0, 0, 0, 0, 0, 0, 0, 0, 0, 37245, 0, 0, 0, 0, 0, 0, 0, 0, 0, 0, 0, 0, 18927, 44663, 0, 0, 0, 0, 22731, 43626, 0, 0, 0, 0, 0, 0, 25823, 0, 0, 40884, 0, 0, 0, 0, -1, 0, 0, 45709, 0, 27972, 34945, 26118, 0],[0, 35950, 46163, 0, 0, 30416, 0, 0, 0, 0, 0, 0, 0, 0, 0, 31849, 0, 0, 0, 0, 0, 0, 0, 42453, 0, 33312, 0, 39561, 42985, 0, 30721, 44510, 0, 0, 0, 0, 0, 0, 0, 0, 17776, 0, 0, 0, 0, 0, 0, 0, 0, 0, 0, 0, 0, 0, 0, 0, 0, 0, 0, 38499, 0, 0, 0, 0, 0, 0, 0, 0, 25952, 0, 0, 0, 0, 0, 36529, 0, 0, 0, 0, 0, 0, 30039, 0, 0, 0, 0, 0, 0, -1, 0, 19731, 38784, 0, 0, 0, 40353],[39538, 0, 0, 0, 0, 0, 0, 0, 0, 0, 0, 0, 0, 0, 33008, 13744, 0, 0, 0, 0, 44610, 0, 0, 0, 0, 0, 0, 41145, 0, 32084, 0, 0, 0, 0, 0, 0, 0, 0, 21149, 0, 0, 0, 41405, 0, 43548, 0, 43316, 37646, 0, 0, 0, 0, 29549, 0, 24193, 0, 40698, 0, 0, 0, 0, 0, 30510, 41944, 0, 0, 0, 0, 0, 0, 14994, 0, 15908, 0, 30999, 0, 0, 17251, 0, 0, 0, 0, 0, 0, 0, 41531, 32004, 0, 0, -1, 0, 0, 0, 17495, 0, 6152],[0, 0, 0, 0, 43595, 0, 0, 0, 0, 33498, 0, 0, 29379, 0, 0, 0, 37430, 43503, 43526, 32225, 0, 30840, 13341, 0, 36440, 0, 0, 43698, 27526, 0, 0, 0, 23185, 0, 27332, 0, 0, 0, 0, 0, 11634, 0, 37304, 37787, 0, 0, 15240, 0, 0, 0, 0, 0, 0, 0, 0, 0, 0, 0, 0, 0, 0, 0, 0, 0, 34805, 0, 38080, 0, 0, 0, 0, 0, 43169, 0, 44439, 0, 46195, 0, 0, 0, 20254, 0, 31306, 35133, 0, 0, 0, 45709, 19731, 0, -1, 0, 0, 0, 0, 10892],[16201, 0, 0, 21937, 0, 0, 0, 0, 40675, 0, 40462, 0, 0, 30442, 0, 0, 0, 31993, 41149, 0, 12537, 0, 0, 33213, 22386, 0, 0, 45481, 0, 0, 0, 0, 41077, 0, 0, 0, 0, 0, 0, 0, 0, 0, 0, 0, 0, 0, 0, 0, 0, 0, 0, 21468, 0, 0, 9602, 0, 0, 0, 0, 31656, 0, 0, 0, 0, 0, 25954, 37586, 29486, 0, 0, 7876, 0, 0, 27599, 38992, 0, 46216, 0, 0, 0, 0, 26468, 0, 0, 0, 0, 0, 0, 38784, 0, 0, -1, 0, 0, 0, 0],[0, 0, 0, 0, 0, 0, 0, 0, 0, 0, 0, 0, 0, 0, 0, 14384, 0, 38413, 0, 0, 0, 0, 0, 0, 13148, 0, 0, 0, 30809, 0, 0, 0, 0, 0, 0, 0, 0, 0, 18564, 0, 0, 0, 0, 0, 0, 41133, 0, 0, 0, 0, 0, 0, 0, 0, 0, 0, 0, 16937, 0, 0, 0, 0, 0, 0, 0, 0, 0, 0, 0, 0, 41850, 24446, 0, 0, 0, 0, 22330, 44867, 7560, 0, 37183, 0, 0, 0, 30706, 0, 0, 27972, 0, 0, 0, 0, -1, 36725, 0, 0],[0, 0, 22231, 29802, 0, 0, 33426, 0, 27473, 0, 0, 32133, 0, 0, 0, 27818, 0, 0, 0, 0, 0, 0, 0, 12867, 0, 0, 0, 0, 43120, 21332, 37297, 12262, 0, 35854, 0, 0, 0, 18040, 13822, 0, 0, 0, 0, 0, 0, 13518, 0, 0, 0, 0, 0, 0, 0, 0, 0, 0, 0, 0, 28927, 0, 30660, 0, 0, 0, 0, 0, 34098, 21483, 0, 0, 0, 0, 0, 0, 0, 15080, 0, 0, 30541, 27062, 0, 0, 6716, 0, 0, 0, 0, 34945, 0, 17495, 0, 0, 36725, -1, 0, 0],[0, 0, 0, 0, 0, 40148, 0, 0, 0, 0, 0, 30013, 0, 0, 0, 37077, 0, 32453, 0, 46340, 0, 18503, 0, 0, 18155, 0, 0, 0, 0, 29748, 0, 0, 0, 0, 0, 44297, 39575, 37080, 0, 31909, 0, 0, 0, 0, 0, 38509, 0, 0, 0, 36135, 0, 0, 0, 0, 11275, 0, 0, 43432, 0, 0, 0, 26555, 0, 29839, 0, 0, 0, 0, 0, 37956, 0, 0, 0, 32885, 31142, 0, 0, 0, 21404, 0, 0, 0, 6451, 0, 0, 21632, 46052, 26118, 0, 0, 0, 0, 0, 0, -1, 0],[0, 0, 9681, 0, 0, 0, 0, 0, 0, 0, 0, 0, 0, 35489, 0, 0, 42794, 0, 0, 0, 12755, 0, 0, 0, 0, 0, 0, 41358, 32231, 17623, 0, 45794, 0, 0, 0, 0, 0, 23624, 0, 46338, 0, 17592, 0, 29052, 0, 0, 4649, 0, 0, 0, 42087, 0, 0, 0, 0, 29558, 0, 0, 0, 0, 0, 0, 0, 0, 0, 0, 0, 0, 0, 0, 0, 0, 43465, 0, 0, 0, 0, 35537, 0, 32134, 0, 39304, 0, 0, 37939, 0, 0, 0, 40353, 6152, 10892, 0, 0, 0, 0, -1]]